c FILE /home/rafael/Documents/HappySet/MIHS/inputs/happygen/output/graph_scale_free_k10_p0.2_v50_20241127_082510.txt
c SOURCE This is a scale-free graph formed for the happy graph colouring problem.
c DESCRIPTION It was generated using the problem generator of Rhyd Lewis
c
c GRAPH STATS
c Seed                             = -1334875694
c Number of Nodes                  = 50
c Number of colours k              = 10
c Number of pre-assignments        = 10
c Number of links per new node     = 5
c Density                          = 0.191837
c 
c The degrees of nodes 1 to 50, respectively, are as follows 
c [24, 22, 22, 21, 20, 19, 15, 14, 14, 13, 13, 11, 11, 10, 10, 10, 9, 9, 8, 8, 8, 8, 8, 8, 8, 7, 
c  7, 7, 7, 7, 7, 7, 6, 6, 6, 6, 6, 6, 6, 6, 5, 5, 5, 5, 5, 5, 5, 5, 5, 5] 
c  
p edge 50 235 10
e 1 2
e 1 3
e 1 4
e 1 5
e 1 7
e 1 8
e 1 9
e 1 10
e 1 11
e 1 17
e 1 22
e 1 23
e 1 25
e 1 26
e 1 28
e 1 32
e 1 33
e 1 35
e 1 36
e 1 38
e 1 43
e 1 44
e 1 46
e 1 49
e 2 3
e 2 4
e 2 5
e 2 6
e 2 7
e 2 8
e 2 9
e 2 10
e 2 11
e 2 15
e 2 17
e 2 19
e 2 25
e 2 28
e 2 29
e 2 35
e 2 38
e 2 39
e 2 42
e 2 45
e 2 46
e 3 5
e 3 6
e 3 7
e 3 8
e 3 9
e 3 10
e 3 12
e 3 13
e 3 14
e 3 15
e 3 17
e 3 19
e 3 20
e 3 22
e 3 26
e 3 28
e 3 34
e 3 38
e 3 41
e 3 45
e 4 5
e 4 7
e 4 8
e 4 9
e 4 11
e 4 14
e 4 15
e 4 16
e 4 21
e 4 23
e 4 27
e 4 31
e 4 36
e 4 38
e 4 41
e 4 42
e 4 46
e 4 47
e 4 49
e 5 8
e 5 12
e 5 13
e 5 14
e 5 15
e 5 16
e 5 18
e 5 20
e 5 23
e 5 24
e 5 27
e 5 28
e 5 33
e 5 37
e 5 40
e 5 47
e 6 7
e 6 8
e 6 10
e 6 12
e 6 13
e 6 14
e 6 15
e 6 16
e 6 17
e 6 19
e 6 27
e 6 29
e 6 33
e 6 42
e 6 44
e 6 47
e 6 49
e 7 8
e 7 9
e 7 10
e 7 12
e 7 16
e 7 19
e 7 23
e 7 30
e 7 34
e 7 47
e 8 9
e 8 10
e 8 17
e 8 21
e 8 23
e 8 26
e 8 29
e 9 20
e 9 26
e 9 27
e 9 31
e 9 33
e 9 34
e 9 35
e 9 41
e 10 14
e 10 16
e 10 19
e 10 24
e 10 28
e 10 41
e 10 42
e 11 12
e 11 17
e 11 21
e 11 24
e 11 25
e 11 30
e 11 31
e 11 36
e 11 43
e 11 50
e 12 13
e 12 17
e 12 20
e 12 22
e 12 34
e 12 37
e 13 20
e 13 30
e 13 31
e 13 38
e 13 39
e 13 45
e 13 48
e 14 20
e 14 32
e 14 36
e 14 43
e 14 49
e 15 21
e 15 25
e 15 33
e 15 34
e 15 46
e 16 18
e 16 24
e 16 35
e 16 42
e 16 48
e 17 21
e 17 41
e 18 26
e 18 28
e 18 30
e 18 34
e 18 36
e 18 44
e 18 49
e 19 22
e 19 25
e 19 26
e 20 24
e 20 29
e 21 30
e 21 31
e 21 48
e 22 27
e 22 39
e 22 44
e 22 50
e 23 29
e 23 46
e 23 50
e 24 35
e 24 43
e 24 45
e 25 37
e 25 39
e 25 50
e 26 27
e 27 43
e 28 44
e 29 39
e 29 48
e 30 32
e 30 40
e 31 32
e 31 37
e 32 36
e 32 47
e 32 50
e 33 37
e 35 40
e 37 40
e 38 40
e 39 45
e 40 48
n 18 3
n 19 1
n 21 10
n 27 7
n 32 8
n 37 9
n 38 2
n 42 5
n 45 4
n 46 6
